nNurses = 89;
nHours = 30;
minHours = 5;
maxHours = 11;
maxConsec = 6;
maxPresence = 12;
demand = [7, 7, 5, 6, 10, 13, 11, 12, 11, 14, 12, 7, 6, 11, 11, 9, 11, 14, 10, 11, 8, 13, 13, 10, 8, 11, 11, 13, 10, 12];
